p cnf 30 52
16 -8 -7 -2 0
17 -14 -13 -4 0
-10 -8 -6 -3 -17 0
18 -10 -9 -7 -2 0
-18 -17 0
-6 19 -10 -2 0
-15 -13 20 -4 0
-20 -19 -9 0
-20 -18 0
-21 -20 0
-21 -17 0
-22 -21 0
-22 -18 0
-14 -12 23 0
-23 -5 -18 0
24 -5 -13 0
-24 -15 -18 0
-24 -14 22 0
-7 -3 25 0
-8 -25 -11 -17 0
-8 21 -10 -25 0
-16 26 -10 0
-15 -12 -4 -26 0
-15 -5 -12 -26 0
-24 -15 -26 0
-26 -17 0
-20 -26 0
-22 -26 0
-23 -5 -26 0
-16 27 -11 0
-15 -4 -12 -27 0
-27 -17 0
-20 -27 0
-22 -27 0
-24 -15 -27 0
-23 -4 28 0
-28 -26 0
-28 -27 0
-21 -28 0
-11 -8 -6 29 -2 0
-29 -17 0
-29 -28 0
-9 30 -17 0
-30 -19 0
-30 -11 -25 0
-30 -10 -25 0
-7 -30 -11 -2 0
-8 -19 31 0
-31 -20 0
-31 -28 0
-31 -17 0
-31 -22 0
